! initialization
System = sars-cov2-ligands
ISTART = 0       ! new calculation
ICHARG = 2

! electronic optimization
ENCUT = 300
ISMEAR = 0; SIGMA = 0.1

! ionic relaxation
ALGO = VeryFast  ! for RMM-DIIS from https://www.nvidia.com/en-us/data-center/gpu-accelerated-applications/vasp/
IBRION = 1       ! use RMM-DIIS algorithm to converge
LREAL = A        ! https://www.nvidia.com/en-us/data-center/gpu-accelerated-applications/vasp/
NCORE =1         ! https://www.nvidia.com/en-us/data-center/gpu-accelerated-applications/vasp/
ISIF = 2         ! only relax atoms
NSW = 10         ! 10 ionic steps
EDIFFG = -0.06   ! forces smaller 0.06 A/eV
LVTOT=.TRUE.     ! electrostatic potential map (MEP)
